c description: Tseitin formula on , with even charge
c generator: CNFgen (0.9.0)
c copyright: (C) 2012-2020 Massimo Lauria <massimo.lauria@uniroma1.it>
c url: https://massimolauria.net/cnfgen
c
p cnf 20 110
1 2 3 4 -5 0
1 2 3 -4 5 0
1 2 -3 4 5 0
1 2 -3 -4 -5 0
1 -2 3 4 5 0
1 -2 3 -4 -5 0
1 -2 -3 4 -5 0
1 -2 -3 -4 5 0
-1 2 3 4 5 0
-1 2 3 -4 -5 0
-1 2 -3 4 -5 0
-1 2 -3 -4 5 0
-1 -2 3 4 -5 0
-1 -2 3 -4 5 0
-1 -2 -3 4 5 0
-1 -2 -3 -4 -5 0
1 -6 0
-1 6 0
7 8 -9 0
7 -8 9 0
-7 8 9 0
-7 -8 -9 0
2 7 10 11 -12 0
2 7 10 -11 12 0
2 7 -10 11 12 0
2 7 -10 -11 -12 0
2 -7 10 11 12 0
2 -7 10 -11 -12 0
2 -7 -10 11 -12 0
2 -7 -10 -11 12 0
-2 7 10 11 12 0
-2 7 10 -11 -12 0
-2 7 -10 11 -12 0
-2 7 -10 -11 12 0
-2 -7 10 11 -12 0
-2 -7 10 -11 12 0
-2 -7 -10 11 12 0
-2 -7 -10 -11 -12 0
3 10 -13 0
3 -10 13 0
-3 10 13 0
-3 -10 -13 0
8 14 -15 0
8 -14 15 0
-8 14 15 0
-8 -14 -15 0
4 16 17 -18 0
4 16 -17 18 0
4 -16 17 18 0
4 -16 -17 -18 0
-4 16 17 18 0
-4 16 -17 -18 0
-4 -16 17 -18 0
-4 -16 -17 18 0
6 13 14 16 19 -20 0
6 13 14 16 -19 20 0
6 13 14 -16 19 20 0
6 13 14 -16 -19 -20 0
6 13 -14 16 19 20 0
6 13 -14 16 -19 -20 0
6 13 -14 -16 19 -20 0
6 13 -14 -16 -19 20 0
6 -13 14 16 19 20 0
6 -13 14 16 -19 -20 0
6 -13 14 -16 19 -20 0
6 -13 14 -16 -19 20 0
6 -13 -14 16 19 -20 0
6 -13 -14 16 -19 20 0
6 -13 -14 -16 19 20 0
6 -13 -14 -16 -19 -20 0
-6 13 14 16 19 20 0
-6 13 14 16 -19 -20 0
-6 13 14 -16 19 -20 0
-6 13 14 -16 -19 20 0
-6 13 -14 16 19 -20 0
-6 13 -14 16 -19 20 0
-6 13 -14 -16 19 20 0
-6 13 -14 -16 -19 -20 0
-6 -13 14 16 19 -20 0
-6 -13 14 16 -19 20 0
-6 -13 14 -16 19 20 0
-6 -13 14 -16 -19 -20 0
-6 -13 -14 16 19 20 0
-6 -13 -14 16 -19 -20 0
-6 -13 -14 -16 19 -20 0
-6 -13 -14 -16 -19 20 0
5 11 15 17 -19 0
5 11 15 -17 19 0
5 11 -15 17 19 0
5 11 -15 -17 -19 0
5 -11 15 17 19 0
5 -11 15 -17 -19 0
5 -11 -15 17 -19 0
5 -11 -15 -17 19 0
-5 11 15 17 19 0
-5 11 15 -17 -19 0
-5 11 -15 17 -19 0
-5 11 -15 -17 19 0
-5 -11 15 17 -19 0
-5 -11 15 -17 19 0
-5 -11 -15 17 19 0
-5 -11 -15 -17 -19 0
9 12 18 -20 0
9 12 -18 20 0
9 -12 18 20 0
9 -12 -18 -20 0
-9 12 18 20 0
-9 12 -18 -20 0
-9 -12 18 -20 0
-9 -12 -18 20 0